
List of user-set options:

                                    Name   Value                used
                acceptable_compl_inf_tol = 0.001                 yes
              acceptable_constr_viol_tol = 1e-05                 yes
                 acceptable_dual_inf_tol = 100                   yes
                         acceptable_iter = 15                    yes
               acceptable_obj_change_tol = 0.001                 yes
                          acceptable_tol = 10                    yes
                      bound_relax_factor = 1e-12                 yes
                           compl_inf_tol = 1e-06                 yes
                         constr_viol_tol = 1e-06                 yes
                         derivative_test = first-order           yes
            derivative_test_perturbation = 1e-07                 yes
                            dual_inf_tol = 100000                yes
               expect_infeasible_problem = no                    yes
                        file_print_level = 5                     yes
                   hessian_approximation = limited-memory        yes
                           linear_solver = mumps                 yes
                                max_iter = 3000                  yes
                             mu_strategy = adaptive              yes
                nlp_scaling_max_gradient = 100                   yes
                      nlp_scaling_method = gradient-based        yes
                        option_file_name =                        no
                             output_file = fitter-ipopt.log      yes
                             print_level = 5                     yes
             print_options_documentation = no                    yes
                      print_user_options = yes                   yes
                        start_with_resto = no                    yes
                                     tol = 0.001                 yes

******************************************************************************
This program contains Ipopt, a library for large-scale nonlinear optimization.
 Ipopt is released as open source code under the Eclipse Public License (EPL).
         For more information visit http://projects.coin-or.org/Ipopt
******************************************************************************

This is Ipopt version 3.11.9, running with linear solver mumps.
NOTE: Other linear solvers might be more efficient (see Ipopt documentation).

Starting derivative checker for first derivatives.


No errors detected by derivative checker.

Number of nonzeros in equality constraint Jacobian...:        0
Number of nonzeros in inequality constraint Jacobian.:     1687
Number of nonzeros in Lagrangian Hessian.............:        0

Total number of variables............................:        7
                     variables with only lower bounds:        1
                variables with lower and upper bounds:        0
                     variables with only upper bounds:        0
Total number of equality constraints.................:        0
Total number of inequality constraints...............:      241
        inequality constraints with only lower bounds:        0
   inequality constraints with lower and upper bounds:        0
        inequality constraints with only upper bounds:      241

iter    objective    inf_pr   inf_du lg(mu)  ||d||  lg(rg) alpha_du alpha_pr  ls
   0  1.1764034e-03 0.00e+00 1.00e+00   0.0 0.00e+00    -  0.00e+00 0.00e+00   0
   1  1.1594357e-03 0.00e+00 1.58e+00  -7.8 1.51e-02    -  6.76e-01 1.00e+00h  1
   2  1.3081793e-03 0.00e+00 3.37e-02  -3.6 3.34e-03    -  9.24e-01 1.00e+00h  1
   3  1.2245178e-03 0.00e+00 1.83e-03  -5.1 5.21e-03    -  9.85e-01 1.00e+00h  1
   4  8.0386307e-04 8.40e-05 4.89e-03 -11.0 1.60e-02    -  1.00e+00 1.00e+00h  1
   5  6.6216624e-04 5.32e-04 2.01e-03  -6.7 1.01e-02    -  1.00e+00 8.40e-01h  1
   6  6.2614225e-04 6.65e-04 1.17e-03  -6.6 9.82e-03    -  1.00e+00 6.97e-01h  1
   7  6.4143290e-04 0.00e+00 2.15e-04  -6.7 1.19e-03    -  1.00e+00 1.00e+00h  1

Number of Iterations....: 7

                                   (scaled)                 (unscaled)
Objective...............:   6.4143290376886567e-04    6.4143290376886567e-04
Dual infeasibility......:   2.1474518578436892e-04    2.1474518578436892e-04
Constraint violation....:   0.0000000000000000e+00    0.0000000000000000e+00
Complementarity.........:   5.3578852791803846e-07    5.3578852791803846e-07
Overall NLP error.......:   2.1474518578436892e-04    2.1474518578436892e-04


Number of objective function evaluations             = 8
Number of objective gradient evaluations             = 8
Number of equality constraint evaluations            = 0
Number of inequality constraint evaluations          = 8
Number of equality constraint Jacobian evaluations   = 0
Number of inequality constraint Jacobian evaluations = 8
Number of Lagrangian Hessian evaluations             = 0
Total CPU secs in IPOPT (w/o function evaluations)   =      0.109
Total CPU secs in NLP function evaluations           =      0.053

EXIT: Optimal Solution Found.
